results/res_prop_muc/res_Cimatti_mathsat_cores/QF_LRA/tgc_io-safe-5.smt.smt2.res
unsat
( c10
  c1005
  c1014
  c1018
  c102
  c1022
  c1027
  c1028
  c1029
  c1040
  c1047
  c1048
  c1065
  c1075
  c108
  c1083
  c1087
  c1088
  c1089
  c1090
  c1094
  c1098
  c11
  c1102
  c1106
  c1107
  c1118
  c1124
  c1125
  c1137
  c1147
  c1157
  c1161
  c1163
  c1164
  c1165
  c1166
  c1170
  c1174
  c1180
  c1181
  c1185
  c12
  c1203
  c1213
  c1225
  c1231
  c1236
  c1241
  c1254
  c1255
  c1263
  c1267
  c13
  c14
  c15
  c26
  c270
  c274
  c277
  c278
  c280
  c285
  c29
  c300
  c303
  c304
  c319
  c321
  c329
  c331
  c339
  c340
  c342
  c350
  c355
  c36
  c367
  c37
  c386
  c402
  c412
  c424
  c435
  c454
  c464
  c479
  c489
  c500
  c509
  c518
  c522
  c526
  c528
  c529
  c532
  c533
  c544
  c548
  c55
  c551
  c552
  c56
  c569
  c579
  c588
  c590
  c598
  c599
  c602
  c603
  c605
  c609
  c612
  c615
  c617
  c618
  c621
  c622
  c633
  c634
  c652
  c662
  c672
  c673
  c677
  c684
  c690
  c691
  c692
  c704
  c71
  c711
  c728
  c739
  c749
  c762
  c763
  c764
  c766
  c77
  c770
  c773
  c774
  c776
  c780
  c781
  c796
  c799
  c800
  c815
  c816
  c82
  c827
  c83
  c835
  c836
  c846
  c850
  c852
  c853
  c857
  c860
  c861
  c863
  c865
  c881
  c882
  c884
  c887
  c888
  c898
  c899
  c91
  c910
  c92
  c920
  c921
  c931
  c938
  c939
  c94
  c940
  c944
  c948
  c950
  c963
  c964
  c975
  c985
  c996 )
